decision_x1=[0,4];
decision_x2=[0,4];
decision_x3=[0,4];
decision_x4=[0,4];
decision_x5=[0,4];
decision_x6=[0,4];
decision_x7=[0,4];
decision_x8=[0,4];
decision_x9=[0,4];
decision_x10=[0,4];
random_y1=[0,4];
random_y2=[0,4];
constraint_x3_x1=[
0,1,6.3|
0,2,2.6|
0,3,7.9|
0,4,2|
1,0,3.5|
1,2,8.5|
1,3,2.9|
1,4,0.083|
2,0,5.4|
2,1,6.3|
2,3,9|
2,4,9.4|
3,0,6.2|
3,1,7.7|
3,2,2.2|
3,4,6.9|
4,0,8.4|
4,1,6.9|
4,2,1.4|
4,3,0.32|
];
constraint_x3_x2=[
0,1,1.5|
0,2,0.83|
0,3,7.5|
0,4,6.4|
1,0,9|
1,2,0.15|
1,3,7.5|
1,4,8.1|
2,0,4.3|
2,1,6.4|
2,3,5.8|
2,4,4.9|
3,0,0.086|
3,1,0.14|
3,2,6.1|
3,4,3.2|
4,0,3.2|
4,1,9.9|
4,2,9.5|
4,3,1.2|
];
constraint_x4_x2=[
0,1,2.1|
0,2,4.6|
0,3,8.6|
0,4,1.6|
1,0,2.8|
1,2,2.2|
1,3,7.4|
1,4,1.3|
2,0,0.38|
2,1,3.4|
2,3,0.87|
2,4,6.7|
3,0,4.9|
3,1,4.3|
3,2,4.3|
3,4,7.2|
4,0,6.4|
4,1,5.5|
4,2,3.7|
4,3,3|
];
constraint_x4_x3=[
0,1,2.3|
0,2,4.8|
0,3,8|
0,4,4.6|
1,0,5.3|
1,2,7.2|
1,3,0.91|
1,4,0.65|
2,0,2.5|
2,1,6|
2,3,0.2|
2,4,1|
3,0,0.28|
3,1,0.31|
3,2,9.1|
3,4,8|
4,0,8.7|
4,1,7.4|
4,2,9.2|
4,3,6.1|
];
constraint_x5_x3=[
0,1,3.5|
0,2,4.3|
0,3,2.5|
0,4,6.2|
1,0,3.1|
1,2,3|
1,3,5.2|
1,4,7|
2,0,7.5|
2,1,2.3|
2,3,9.4|
2,4,4.5|
3,0,8.5|
3,1,9.5|
3,2,9.7|
3,4,3.7|
4,0,0.11|
4,1,0.58|
4,2,5.7|
4,3,2.4|
];
constraint_x6_x1=[
0,1,2|
0,2,1.5|
0,3,9.4|
0,4,8.4|
1,0,3.7|
1,2,0.91|
1,3,6.6|
1,4,2.2|
2,0,1.5|
2,1,0.51|
2,3,6.8|
2,4,5.8|
3,0,4.5|
3,1,7|
3,2,6.4|
3,4,3.7|
4,0,3.2|
4,1,8.6|
4,2,6.7|
4,3,6.3|
];
constraint_x6_x4=[
0,1,9.1|
0,2,1.3|
0,3,4.9|
0,4,6.6|
1,0,0.55|
1,2,7.1|
1,3,9.3|
1,4,3|
2,0,6.7|
2,1,3.9|
2,3,9.2|
2,4,8.6|
3,0,9.3|
3,1,9.9|
3,2,1.5|
3,4,8.4|
4,0,5.4|
4,1,2.8|
4,2,7.4|
4,3,3.1|
];
constraint_x7_x1=[
0,1,0.19|
0,2,9.3|
0,3,9|
0,4,6.2|
1,0,2.9|
1,2,4.6|
1,3,6.7|
1,4,0.48|
2,0,0.64|
2,1,4.4|
2,3,8.5|
2,4,8.7|
3,0,0.87|
3,1,8.8|
3,2,7.6|
3,4,2.9|
4,0,8.7|
4,1,5.9|
4,2,2.9|
4,3,4.9|
];
constraint_x7_x2=[
0,1,5.5|
0,2,8.3|
0,3,2.7|
0,4,1.9|
1,0,4.4|
1,2,3.5|
1,3,8.9|
1,4,3.2|
2,0,7.4|
2,1,5.9|
2,3,3.7|
2,4,2.2|
3,0,4.9|
3,1,4.9|
3,2,4.6|
3,4,1.4|
4,0,9.7|
4,1,5.2|
4,2,8.8|
4,3,4.9|
];
constraint_x7_x3=[
0,1,1.8|
0,2,3|
0,3,0.4|
0,4,1.9|
1,0,8.6|
1,2,0.7|
1,3,8.6|
1,4,6|
2,0,0.0045|
2,1,6.7|
2,3,6.9|
2,4,0.54|
3,0,9.6|
3,1,7.6|
3,2,5.4|
3,4,9.1|
4,0,3.8|
4,1,6.7|
4,2,3.6|
4,3,9.2|
];
constraint_x7_x5=[
0,1,2.4|
0,2,6.6|
0,3,2.4|
0,4,1.2|
1,0,5.4|
1,2,3.2|
1,3,8.4|
1,4,1.3|
2,0,0.053|
2,1,1.7|
2,3,9.1|
2,4,5.2|
3,0,7.8|
3,1,5.6|
3,2,6.6|
3,4,0.023|
4,0,0.034|
4,1,6.4|
4,2,5.3|
4,3,8.7|
];
constraint_x8_x1=[
0,1,2.5|
0,2,4|
0,3,9.2|
0,4,7.4|
1,0,1.9|
1,2,1.9|
1,3,8|
1,4,6.8|
2,0,8.1|
2,1,5.5|
2,3,0.066|
2,4,0.91|
3,0,4.4|
3,1,6.3|
3,2,7.6|
3,4,8.2|
4,0,6|
4,1,3.5|
4,2,8.1|
4,3,1.8|
];
constraint_x8_x3=[
0,1,5.4|
0,2,1|
0,3,4.4|
0,4,5.8|
1,0,5.8|
1,2,3.4|
1,3,2.2|
1,4,2.7|
2,0,8.2|
2,1,2|
2,3,0.47|
2,4,1.3|
3,0,9.3|
3,1,8.4|
3,2,0.65|
3,4,2.2|
4,0,5.2|
4,1,2.6|
4,2,0.44|
4,3,7.1|
];
constraint_x8_x4=[
0,1,9|
0,2,2.1|
0,3,2.3|
0,4,8.7|
1,0,7.8|
1,2,7.3|
1,3,7.7|
1,4,8.2|
2,0,5.9|
2,1,7.1|
2,3,2.4|
2,4,2.4|
3,0,2|
3,1,8.2|
3,2,7.5|
3,4,3.2|
4,0,4.9|
4,1,7.3|
4,2,1.2|
4,3,3.4|
];
constraint_x8_x5=[
0,1,8.6|
0,2,5.5|
0,3,3.8|
0,4,8|
1,0,6|
1,2,6.6|
1,3,4.6|
1,4,3.9|
2,0,4.5|
2,1,3.1|
2,3,3.5|
2,4,9.9|
3,0,0.86|
3,1,2.5|
3,2,8.2|
3,4,2.3|
4,0,4.2|
4,1,5.3|
4,2,8.9|
4,3,2.9|
];
constraint_x9_x3=[
0,1,2.2|
0,2,2.8|
0,3,3.3|
0,4,9.5|
1,0,3.1|
1,2,7.5|
1,3,2.9|
1,4,5.1|
2,0,5.9|
2,1,3.6|
2,3,6|
2,4,4.1|
3,0,9.7|
3,1,6.6|
3,2,6.6|
3,4,7.6|
4,0,2.9|
4,1,6.9|
4,2,0.18|
4,3,6.9|
];
constraint_x9_x4=[
0,1,1.1|
0,2,8.6|
0,3,7.5|
0,4,1.3|
1,0,4.8|
1,2,5.1|
1,3,3.8|
1,4,9.1|
2,0,2.9|
2,1,4.8|
2,3,3.3|
2,4,7.1|
3,0,4|
3,1,0.71|
3,2,0.063|
3,4,3.5|
4,0,6.5|
4,1,8.4|
4,2,1|
4,3,1.1|
];
constraint_x9_x5=[
0,1,9.8|
0,2,1.7|
0,3,4.4|
0,4,9.7|
1,0,6.1|
1,2,1.1|
1,3,3.8|
1,4,5.5|
2,0,8.7|
2,1,5.3|
2,3,5.5|
2,4,0.63|
3,0,1.1|
3,1,1.8|
3,2,9.9|
3,4,4.1|
4,0,0.91|
4,1,8.2|
4,2,5.5|
4,3,1.7|
];
constraint_x9_x8=[
0,1,7|
0,2,5.2|
0,3,6.3|
0,4,6|
1,0,0.81|
1,2,3.1|
1,3,1|
1,4,5|
2,0,3.6|
2,1,8|
2,3,2|
2,4,1.5|
3,0,4.5|
3,1,6|
3,2,2|
3,4,6.9|
4,0,0.79|
4,1,2|
4,2,0.71|
4,3,0.44|
];
constraint_x10_x2=[
0,1,0.68|
0,2,6.4|
0,3,9.1|
0,4,9.3|
1,0,6.7|
1,2,2.5|
1,3,7.7|
1,4,0.41|
2,0,2.5|
2,1,7.3|
2,3,6.5|
2,4,7.6|
3,0,7|
3,1,9.1|
3,2,0.38|
3,4,1.6|
4,0,7.2|
4,1,8.5|
4,2,4|
4,3,3.5|
];
constraint_x10_x5=[
0,1,3.1|
0,2,9.9|
0,3,5|
0,4,7.9|
1,0,9|
1,2,8.8|
1,3,6.9|
1,4,3.3|
2,0,3.1|
2,1,1.3|
2,3,6.5|
2,4,1.2|
3,0,4.9|
3,1,8.6|
3,2,6.1|
3,4,4.1|
4,0,6.3|
4,1,0.83|
4,2,6|
4,3,6.3|
];
constraint_x10_x7=[
0,1,3.4|
0,2,7.2|
0,3,7.7|
0,4,1.2|
1,0,1.7|
1,2,9.1|
1,3,3.9|
1,4,1.9|
2,0,2.9|
2,1,4.1|
2,3,0.39|
2,4,0.42|
3,0,9.8|
3,1,9.8|
3,2,3.8|
3,4,3.2|
4,0,8.2|
4,1,4.8|
4,2,9.5|
4,3,1.8|
];
constraint_x10_x9=[
0,1,8.1|
0,2,8.2|
0,3,9.2|
0,4,4.2|
1,0,4.1|
1,2,5.1|
1,3,7|
1,4,2.7|
2,0,2.6|
2,1,1.2|
2,3,9.8|
2,4,7.9|
3,0,2.4|
3,1,3.4|
3,2,8.8|
3,4,4.8|
4,0,9.4|
4,1,7.9|
4,2,7.4|
4,3,3|
];
constraint_x1_y1=[
0,0,3.5|
0,1,9|
0,2,0.32|
0,3,4.6|
0,4,5.8|
1,0,7.4|
1,1,0.74|
1,2,9.5|
1,3,0.94|
1,4,0.053|
2,0,8.1|
2,1,8.8|
2,2,1.2|
2,3,9.1|
2,4,5.2|
3,0,7.3|
3,1,1.1|
3,2,6.4|
3,3,8.6|
3,4,5.9|
4,0,6.3|
4,1,7.7|
4,2,4|
4,3,5|
4,4,5.4|
];
constraint_x2_y2=[
0,0,5.8|
0,1,9.4|
0,2,6.4|
0,3,3.9|
0,4,1.8|
1,0,8|
1,1,0.044|
1,2,8.4|
1,3,6|
1,4,2.5|
2,0,5.2|
2,1,8.5|
2,2,5.6|
2,3,7|
2,4,1.3|
3,0,4.6|
3,1,1.8|
3,2,4.1|
3,3,7.1|
3,4,9.9|
4,0,7.8|
4,1,3.6|
4,2,5.4|
4,3,5|
4,4,0.37|
];
initial_distribution_y1=[0.085,0.22,0.14,0.36,0.2];
initial_distribution_y2=[0.16,0.3,0.077,0.31,0.16];
transition_y1=[
0.076,0.086,0.34,0.33,0.17|
0.3,0.12,0.087,0.15,0.35|
0.13,0.29,0.056,0.21,0.31|
0.059,0.082,0.21,0.31,0.34|
0.087,0.21,0.3,0.18,0.23|
];
transition_y2=[
0.22,0.19,0.23,0.15,0.22|
0.16,0.36,0.019,0.14,0.32|
0.15,0.27,0.14,0.21,0.22|
0.41,0.0062,0.14,0.093,0.36|
0.25,0.2,0.16,0.24,0.15|
];
